Bruniera/ragionamento automatico/progetto/benchmark/asp/mid22.lp
start(0).
limit(6).
n(14).
strada(0,4,0).
strada(0,10,11).
strada(0,11,0).
strada(0,12,0).
strada(0,13,6).
strada(1,2,17).
strada(1,4,11).
strada(1,5,14).
strada(1,8,20).
strada(1,12,16).
strada(1,13,8).
strada(2,6,12).
strada(2,9,19).
strada(2,12,6).
strada(2,13,7).
strada(3,0,20).
strada(3,1,7).
strada(3,2,11).
strada(3,6,4).
strada(3,7,16).
strada(3,8,4).
strada(3,11,12).
strada(3,12,2).
strada(4,0,17).
strada(4,1,20).
strada(4,3,7).
strada(4,6,4).
strada(4,7,19).
strada(4,8,1).
strada(4,10,1).
strada(4,12,7).
strada(4,13,15).
strada(5,3,8).
strada(5,4,4).
strada(5,6,17).
strada(5,8,6).
strada(5,9,15).
strada(5,10,7).
strada(5,11,9).
strada(6,0,6).
strada(6,1,4).
strada(6,3,4).
strada(6,4,2).
strada(6,8,11).
strada(6,9,17).
strada(6,13,5).
strada(7,4,0).
strada(7,6,14).
strada(7,10,20).
strada(7,12,19).
strada(8,3,6).
strada(8,4,5).
strada(8,6,12).
strada(8,10,12).
strada(8,13,8).
strada(9,1,17).
strada(9,2,17).
strada(9,3,8).
strada(9,5,11).
strada(9,7,10).
strada(9,10,7).
strada(9,11,1).
strada(10,0,7).
strada(10,3,8).
strada(10,6,5).
strada(10,12,12).
strada(10,13,15).
strada(11,2,8).
strada(11,6,20).
strada(11,7,17).
strada(11,9,18).
strada(11,10,10).
strada(11,12,12).
strada(12,4,14).
strada(12,6,20).
strada(12,7,1).
strada(13,0,0).
strada(13,3,1).
strada(13,4,7).
strada(13,6,2).
strada(13,7,19).
strada(13,11,11).
