Bruniera/ragionamento automatico/progetto/benchmark/minizinc/mid22.dzn
start = 1;
limit = 6;
n = 14;
m=[|-1,-1,-1,-1,0,-1,-1,-1,-1,-1,11,0,0,6,
|-1,-1,17,-1,11,14,-1,-1,20,-1,-1,-1,16,8,
|-1,-1,-1,-1,-1,-1,12,-1,-1,19,-1,-1,6,7,
|20,7,11,-1,-1,-1,4,16,4,-1,-1,12,2,-1,
|17,20,-1,7,-1,-1,4,19,1,-1,1,-1,7,15,
|-1,-1,-1,8,4,-1,17,-1,6,15,7,9,-1,-1,
|6,4,-1,4,2,-1,-1,-1,11,17,-1,-1,-1,5,
|-1,-1,-1,-1,0,-1,14,-1,-1,-1,20,-1,19,-1,
|-1,-1,-1,6,5,-1,12,-1,-1,-1,12,-1,-1,8,
|-1,17,17,8,-1,11,-1,10,-1,-1,7,1,-1,-1,
|7,-1,-1,8,-1,-1,5,-1,-1,-1,-1,-1,12,15,
|-1,-1,8,-1,-1,-1,20,17,-1,18,10,-1,12,-1,
|-1,-1,-1,-1,14,-1,20,1,-1,-1,-1,-1,-1,-1,
|0,-1,-1,1,7,-1,2,19,-1,-1,-1,11,-1,-1,
|]
;